results_rootrelaxation/bin012_080_017.srr.sol
solution status: optimal solution found
objective value:                     17.4594594594595
_var441_                            0.135135135135135 	(obj:2)
_var489_                            0.135135135135135 	(obj:2)
_var749_                            0.297297297297297 	(obj:1)
_var763_                            0.432432432432432 	(obj:1)
_var767_                            0.351351351351351 	(obj:2)
_var769_                            0.459459459459459 	(obj:1)
_var784_                             0.45945945945946 	(obj:1)
_var809_                           0.0270270270270269 	(obj:1)
_var815_                            0.486486486486486 	(obj:1)
_var816_                             0.27027027027027 	(obj:1)
_var822_                             0.27027027027027 	(obj:1)
_var823_                            0.216216216216216 	(obj:2)
_var825_                           0.0810810810810813 	(obj:3)
_var834_                            0.108108108108108 	(obj:1)
_var847_                            0.378378378378379 	(obj:3)
_var864_                            0.297297297297297 	(obj:1)
_var868_                            0.378378378378378 	(obj:1)
_var876_                            0.162162162162162 	(obj:2)
_var879_                           0.0540540540540541 	(obj:1)
_var886_                            0.486486486486487 	(obj:0)
_var887_                            0.351351351351351 	(obj:1)
_var888_                            0.351351351351351 	(obj:2)
_var890_                            0.054054054054054 	(obj:1)
_var894_                            0.243243243243243 	(obj:2)
_var895_                           0.0810810810810811 	(obj:2)
_var898_                            0.243243243243243 	(obj:2)
_var901_                           0.0270270270270275 	(obj:1)
_var904_                            0.459459459459459 	(obj:2)
_var913_                            0.216216216216216 	(obj:3)
_var916_                            0.297297297297297 	(obj:2)
_var919_                            0.108108108108108 	(obj:1)
_var922_                            0.297297297297297 	(obj:1)
_var923_                           0.0270270270270269 	(obj:1)
_var931_                            0.243243243243243 	(obj:2)
_var933_                           0.0540540540540541 	(obj:3)
_var934_                           0.0810810810810811 	(obj:2)
_var935_                           0.0270270270270273 	(obj:2)
_var940_                            0.189189189189189 	(obj:2)
_var944_                            0.162162162162162 	(obj:1)
_var946_                            0.216216216216216 	(obj:3)
_var948_                           0.0270270270270271 	(obj:2)
_var955_                            0.216216216216216 	(obj:2)
_var956_                           0.0270270270270273 	(obj:2)
_var957_                           0.0810810810810811 	(obj:1)
_var962_                            0.054054054054054 	(obj:2)
_var963_                             0.54054054054054 	(obj:2)
_var964_                           0.0540540540540547 	(obj:2)
_var967_                           0.0810810810810811 	(obj:1)
_var968_                            0.108108108108108 	(obj:2)
_var969_                            0.027027027027027 	(obj:3)
_var971_                           0.0270270270270271 	(obj:3)
_var972_                            0.108108108108108 	(obj:2)
_var974_                            0.135135135135135 	(obj:1)
_var975_                           0.0810810810810813 	(obj:3)
_var978_                            0.162162162162162 	(obj:3)
_var982_                           0.0540540540540541 	(obj:3)
