results_rootrelaxation/bin012_080_017.srr.log
SCIP version 8.0.3.5 [precision: 8 byte] [memory: block] [mode: optimized] [LP solver: Soplex 6.0.1.3] [GitHash: 438792519e]
Copyright (c) 2002-2023 Zuse Institute Berlin (ZIB)

External libraries: 
  Readline 8.1         GNU library for command line editing (gnu.org/s/readline)
  Soplex 6.0.1.3       Linear Programming Solver developed at Zuse Institute Berlin (soplex.zib.de) [GitHash: 713be0fe]
  CppAD 20180000.0     Algorithmic Differentiation of C++ algorithms developed by B. Bell (github.com/coin-or/CppAD)
  ZLIB 1.2.11          General purpose compression library by J. Gailly and M. Adler (zlib.net)
  bliss 0.77           Computing Graph Automorphism Groups by T. Junttila and P. Kaski (www.tcs.hut.fi/Software/bliss/)

user parameter file <scip.set> not found - using default parameters

srr/relaxation = TRUE

read problem <instances/bin012_080_017.srr>
============

Original problem: 
original problem has 0 variables (0 bin, 0 int, 0 impl, 0 cont) and 77 constraints

presolving:
presolving (1 rounds: 1 fast, 1 medium, 1 exhaustive):
 0 deleted vars, 0 deleted constraints, 0 added constraints, 0 tightened bounds, 0 added holes, 0 changed sides, 0 changed coefficients
 0 implications, 0 cliques
presolved problem has 0 variables (0 bin, 0 int, 0 impl, 0 cont) and 77 constraints
     77 constraints of type <linear>
Presolving Time: 0.00

 time | node  | left  |LP iter|LP it/n|mem/heur|mdpt |vars |cons |rows |cuts |sepa|confs|strbr|  dualbound   | primalbound  |  gap   | compl. 
  0.0s|     1 |     0 |     1 |     - |   710k |   0 |   1 |  77 |  77 |   0 |  0 |   0 |   0 |      --      |      --      |    Inf | unknown
r 0.1s|     1 |     0 |  1538 |     - |simplero|   0 | 732 |  77 |  77 |   0 |  0 |   0 |   0 |      --      | 3.466423e+01 |    Inf | unknown
r 0.1s|     1 |     0 |  1570 |     - |simplero|   0 | 743 |  77 |  77 |   0 |  0 |   0 |   0 |      --      | 3.359539e+01 |    Inf | unknown
r 0.1s|     1 |     0 |  1634 |     - |simplero|   0 | 754 |  77 |  77 |   0 |  0 |   0 |   0 |      --      | 3.113321e+01 |    Inf | unknown
r 0.1s|     1 |     0 |  1692 |     - |simplero|   0 | 765 |  77 |  77 |   0 |  0 |   0 |   0 |      --      | 2.898298e+01 |    Inf | unknown
r 0.1s|     1 |     0 |  1741 |     - |simplero|   0 | 776 |  77 |  77 |   0 |  0 |   0 |   0 |      --      | 2.816722e+01 |    Inf | unknown
r 0.1s|     1 |     0 |  1779 |     - |simplero|   0 | 787 |  77 |  77 |   0 |  0 |   0 |   0 |      --      | 2.636466e+01 |    Inf | unknown
r 0.1s|     1 |     0 |  1801 |     - |simplero|   0 | 787 |  77 |  77 |   0 |  0 |   0 |   0 |      --      | 2.621052e+01 |    Inf | unknown
r 0.1s|     1 |     0 |  1809 |     - |simplero|   0 | 787 |  77 |  77 |   0 |  0 |   0 |   0 |      --      | 2.618625e+01 |    Inf | unknown
r 0.1s|     1 |     0 |  1895 |     - |simplero|   0 | 798 |  77 |  77 |   0 |  0 |   0 |   0 |      --      | 2.375405e+01 |    Inf | unknown
r 0.1s|     1 |     0 |  1911 |     - |simplero|   0 | 798 |  77 |  77 |   0 |  0 |   0 |   0 |      --      | 2.367912e+01 |    Inf | unknown
r 0.1s|     1 |     0 |  1913 |     - |simplero|   0 | 798 |  77 |  77 |   0 |  0 |   0 |   0 |      --      | 2.367689e+01 |    Inf | unknown
r 0.1s|     1 |     0 |  1940 |     - |simplero|   0 | 809 |  77 |  77 |   0 |  0 |   0 |   0 |      --      | 2.327695e+01 |    Inf | unknown
r 0.1s|     1 |     0 |  1973 |     - |simplero|   0 | 809 |  77 |  77 |   0 |  0 |   0 |   0 |      --      | 2.294186e+01 |    Inf | unknown
r 0.1s|     1 |     0 |  1991 |     - |simplero|   0 | 809 |  77 |  77 |   0 |  0 |   0 |   0 |      --      | 2.290838e+01 |    Inf | unknown
 time | node  | left  |LP iter|LP it/n|mem/heur|mdpt |vars |cons |rows |cuts |sepa|confs|strbr|  dualbound   | primalbound  |  gap   | compl. 
r 0.1s|     1 |     0 |  2026 |     - |simplero|   0 | 820 |  77 |  77 |   0 |  0 |   0 |   0 |      --      | 2.180423e+01 |    Inf | unknown
r 0.1s|     1 |     0 |  2039 |     - |simplero|   0 | 820 |  77 |  77 |   0 |  0 |   0 |   0 |      --      | 2.170462e+01 |    Inf | unknown
r 0.1s|     1 |     0 |  2044 |     - |simplero|   0 | 820 |  77 |  77 |   0 |  0 |   0 |   0 |      --      | 2.170291e+01 |    Inf | unknown
r 0.1s|     1 |     0 |  2081 |     - |simplero|   0 | 831 |  77 |  77 |   0 |  0 |   0 |   0 |      --      | 2.130845e+01 |    Inf | unknown
r 0.1s|     1 |     0 |  2096 |     - |simplero|   0 | 831 |  77 |  77 |   0 |  0 |   0 |   0 |      --      | 2.114271e+01 |    Inf | unknown
r 0.1s|     1 |     0 |  2107 |     - |simplero|   0 | 831 |  77 |  77 |   0 |  0 |   0 |   0 |      --      | 2.110714e+01 |    Inf | unknown
r 0.1s|     1 |     0 |  2108 |     - |simplero|   0 | 831 |  77 |  77 |   0 |  0 |   0 |   0 |      --      | 2.110703e+01 |    Inf | unknown
r 0.1s|     1 |     0 |  2147 |     - |simplero|   0 | 842 |  77 |  77 |   0 |  0 |   0 |   0 |      --      | 2.046484e+01 |    Inf | unknown
r 0.1s|     1 |     0 |  2156 |     - |simplero|   0 | 842 |  77 |  77 |   0 |  0 |   0 |   0 |      --      | 2.044692e+01 |    Inf | unknown
r 0.1s|     1 |     0 |  2161 |     - |simplero|   0 | 842 |  77 |  77 |   0 |  0 |   0 |   0 |      --      | 2.043454e+01 |    Inf | unknown
r 0.1s|     1 |     0 |  2165 |     - |simplero|   0 | 842 |  77 |  77 |   0 |  0 |   0 |   0 |      --      | 2.043415e+01 |    Inf | unknown
r 0.1s|     1 |     0 |  2221 |     - |simplero|   0 | 853 |  77 |  77 |   0 |  0 |   0 |   0 |      --      | 1.987287e+01 |    Inf | unknown
r 0.1s|     1 |     0 |  2230 |     - |simplero|   0 | 853 |  77 |  77 |   0 |  0 |   0 |   0 |      --      | 1.986979e+01 |    Inf | unknown
  0.1s|     1 |     0 |  2231 |     - |  4182k |   0 | 853 |  77 |  77 |   0 |  0 |   0 |   0 |      --      | 1.986979e+01 |    Inf | unknown
r 0.1s|     1 |     0 |  2231 |     - |simplero|   0 | 853 |  77 |  77 |   0 |  0 |   0 |   0 |      --      | 1.986970e+01 |    Inf | unknown
 time | node  | left  |LP iter|LP it/n|mem/heur|mdpt |vars |cons |rows |cuts |sepa|confs|strbr|  dualbound   | primalbound  |  gap   | compl. 
r 0.1s|     1 |     0 |  2258 |     - |simplero|   0 | 864 |  77 |  77 |   0 |  0 |   0 |   0 |      --      | 1.964937e+01 |    Inf | unknown
r 0.1s|     1 |     0 |  2266 |     - |simplero|   0 | 864 |  77 |  77 |   0 |  0 |   0 |   0 |      --      | 1.964204e+01 |    Inf | unknown
r 0.1s|     1 |     0 |  2272 |     - |simplero|   0 | 864 |  77 |  77 |   0 |  0 |   0 |   0 |      --      | 1.964199e+01 |    Inf | unknown
r 0.1s|     1 |     0 |  2275 |     - |simplero|   0 | 864 |  77 |  77 |   0 |  0 |   0 |   0 |      --      | 1.964166e+01 |    Inf | unknown
r 0.1s|     1 |     0 |  2303 |     - |simplero|   0 | 875 |  77 |  77 |   0 |  0 |   0 |   0 |      --      | 1.933466e+01 |    Inf | unknown
r 0.1s|     1 |     0 |  2325 |     - |simplero|   0 | 875 |  77 |  77 |   0 |  0 |   0 |   0 |      --      | 1.920198e+01 |    Inf | unknown
r 0.1s|     1 |     0 |  2334 |     - |simplero|   0 | 875 |  77 |  77 |   0 |  0 |   0 |   0 |      --      | 1.918986e+01 |    Inf | unknown
r 0.1s|     1 |     0 |  2366 |     - |simplero|   0 | 886 |  77 |  77 |   0 |  0 |   0 |   0 |      --      | 1.905555e+01 |    Inf | unknown
r 0.1s|     1 |     0 |  2381 |     - |simplero|   0 | 886 |  77 |  77 |   0 |  0 |   0 |   0 |      --      | 1.900278e+01 |    Inf | unknown
r 0.1s|     1 |     0 |  2438 |     - |simplero|   0 | 897 |  77 |  77 |   0 |  0 |   0 |   0 |      --      | 1.865163e+01 |    Inf | unknown
r 0.1s|     1 |     0 |  2447 |     - |simplero|   0 | 897 |  77 |  77 |   0 |  0 |   0 |   0 |      --      | 1.863838e+01 |    Inf | unknown
r 0.1s|     1 |     0 |  2476 |     - |simplero|   0 | 908 |  77 |  77 |   0 |  0 |   0 |   0 |      --      | 1.838466e+01 |    Inf | unknown
r 0.1s|     1 |     0 |  2479 |     - |simplero|   0 | 908 |  77 |  77 |   0 |  0 |   0 |   0 |      --      | 1.838444e+01 |    Inf | unknown
r 0.1s|     1 |     0 |  2512 |     - |simplero|   0 | 919 |  77 |  77 |   0 |  0 |   0 |   0 |      --      | 1.809848e+01 |    Inf | unknown
r 0.1s|     1 |     0 |  2535 |     - |simplero|   0 | 919 |  77 |  77 |   0 |  0 |   0 |   0 |      --      | 1.803990e+01 |    Inf | unknown
 time | node  | left  |LP iter|LP it/n|mem/heur|mdpt |vars |cons |rows |cuts |sepa|confs|strbr|  dualbound   | primalbound  |  gap   | compl. 
r 0.1s|     1 |     0 |  2536 |     - |simplero|   0 | 919 |  77 |  77 |   0 |  0 |   0 |   0 |      --      | 1.803988e+01 |    Inf | unknown
r 0.1s|     1 |     0 |  2564 |     - |simplero|   0 | 930 |  77 |  77 |   0 |  0 |   0 |   0 |      --      | 1.790132e+01 |    Inf | unknown
r 0.1s|     1 |     0 |  2573 |     - |simplero|   0 | 930 |  77 |  77 |   0 |  0 |   0 |   0 |      --      | 1.788560e+01 |    Inf | unknown
r 0.1s|     1 |     0 |  2585 |     - |simplero|   0 | 939 |  77 |  77 |   0 |  0 |   0 |   0 |      --      | 1.779267e+01 |    Inf | unknown
r 0.1s|     1 |     0 |  2600 |     - |simplero|   0 | 947 |  77 |  77 |   0 |  0 |   0 |   0 |      --      | 1.771118e+01 |    Inf | unknown
r 0.1s|     1 |     0 |  2605 |     - |simplero|   0 | 947 |  77 |  77 |   0 |  0 |   0 |   0 |      --      | 1.770505e+01 |    Inf | unknown
r 0.1s|     1 |     0 |  2625 |     - |simplero|   0 | 957 |  77 |  77 |   0 |  0 |   0 |   0 |      --      | 1.760256e+01 |    Inf | unknown
r 0.1s|     1 |     0 |  2635 |     - |simplero|   0 | 964 |  77 |  77 |   0 |  0 |   0 |   0 |      --      | 1.753333e+01 |    Inf | unknown
r 0.1s|     1 |     0 |  2643 |     - |simplero|   0 | 964 |  77 |  77 |   0 |  0 |   0 |   0 |      --      | 1.752812e+01 |    Inf | unknown
r 0.1s|     1 |     0 |  2655 |     - |simplero|   0 | 970 |  77 |  77 |   0 |  0 |   0 |   0 |      --      | 1.749645e+01 |    Inf | unknown
r 0.1s|     1 |     0 |  2657 |     - |simplero|   0 | 970 |  77 |  77 |   0 |  0 |   0 |   0 |      --      | 1.749593e+01 |    Inf | unknown
r 0.1s|     1 |     0 |  2667 |     - |simplero|   0 | 974 |  77 |  77 |   0 |  0 |   0 |   0 |      --      | 1.748475e+01 |    Inf | unknown
r 0.1s|     1 |     0 |  2678 |     - |simplero|   0 | 977 |  77 |  77 |   0 |  0 |   0 |   0 |      --      | 1.746970e+01 |    Inf | unknown
r 0.1s|     1 |     0 |  2687 |     - |simplero|   0 | 981 |  77 |  77 |   0 |  0 |   0 |   0 |      --      | 1.746154e+01 |    Inf | unknown
r 0.1s|     1 |     0 |  2694 |     - |simplero|   0 | 983 |  77 |  77 |   0 |  0 |   0 |   0 |      --      | 1.745946e+01 |    Inf | unknown
 time | node  | left  |LP iter|LP it/n|mem/heur|mdpt |vars |cons |rows |cuts |sepa|confs|strbr|  dualbound   | primalbound  |  gap   | compl. 
  0.1s|     1 |     0 |  2694 |     - |  5263k |   0 | 983 |  77 |  77 |   0 |  0 |   0 |   0 | 1.745946e+01 | 1.745946e+01 |   0.00%| unknown
  0.1s|     1 |     0 |  2694 |     - |  5263k |   0 | 983 |  77 |  77 |   0 |  0 |   0 |   0 | 1.745946e+01 | 1.745946e+01 |   0.00%| unknown

SCIP Status        : problem is solved [optimal solution found]
Solving Time (sec) : 0.13
Solving Nodes      : 1
Primal Bound       : +1.74594594594595e+01 (58 solutions)
Dual Bound         : +1.74594594594595e+01
Gap                : 0.00 %

written transformed problem to file <results_rootrelaxation/bin012_080_017.srr.lp>
written transformed problem to file <results_rootrelaxation/bin012_080_017.srr.cip>

written solution information to file <results_rootrelaxation/bin012_080_017.srr.sol>



